58
15
0 15 17 19 21 22 23 24 25 28 29 30 32 34 35 37 39 40 42 44 45 46 47 49 50 51 55 56 57
1 15 16 17 19 22 24 25 26 27 28 30 36 42 43 44 47 48 49 50 52 53 54 55 56 57
2 15 17 18 19 23 24 25 26 28 29 30 33 34 35 37 40 42 44 45 47 48 50 51 52 55 56 57
3 16 17 19 24 25 27 28 30 33 36 38 40 42 44 45 47 49 50 51 52 55 56 57
4 16 17 19 21 23 26 28 29 36 37 44 45 46 47 49 50 51 55
5 15 16 18 20 21 22 23 24 25 27 29 30 34 39 45 47 50 52 56 57
6 16 19 21 22 23 24 25 26 29 30 34 36 37 42 43 47 48 49 50 51 52 54 56 57
7 17 23 24 28 29 33 35 36 37 39 40 43 45 46 47 48 50 55
8 15 16 17 25 26 33 41 44 48 51 52 54
9 18 20 21 25 28 29 30 31 33 34 37 42 43 45 46 47 49 53 55 57
10 17 21 24 27 29 30 32 35 40 43 44 46 49 54 55
11 17 19 20 26 29 30 37 38 39 48 49 53 56
12 18 23 25 32 37 43 54 56
13 33 35 44 47 57
14 41 53
